Academic license - for non-commercial use only
Optimize a model with 30075 rows, 160051 columns and 335123 nonzeros
Variable types: 160025 continuous, 26 integer (0 binary)
Coefficient statistics:
  Matrix range     [1e+00, 7e+02]
  Objective range  [5e-02, 8e+01]
  Bounds range     [6e-04, 1e+01]
  RHS range        [0e+00, 0e+00]
Found heuristic solution: objective 1144.7008000
Presolve removed 7626 rows and 74101 columns
Presolve time: 0.78s
Presolved: 22449 rows, 85950 columns, 196181 nonzeros
Variable types: 85924 continuous, 26 integer (26 binary)
Deterministic concurrent LP optimizer: primal and dual simplex
Showing first log only...

Concurrent spin time: 0.27s

Solved with dual simplex
Root relaxation: objective 6.714645e+02, 12062 iterations, 1.11 seconds
    Nodes    |    Current Node    |     Objective Bounds      |     Work
 Expl Unexpl |  Obj  Depth IntInf | Incumbent    BestBd   Gap | It/Node Time
     0     0  671.46452    0    8 1144.70080  671.46452  41.3%     -    2s
H    0     0                     704.7932349  671.46452  4.73%     -    2s
     0     0  671.47352    0   20  704.79323  671.47352  4.73%     -    3s
     0     0  671.50727    0   18  704.79323  671.50727  4.72%     -    3s
     0     0  671.51044    0   16  704.79323  671.51044  4.72%     -    4s
     0     0  671.51481    0   16  704.79323  671.51481  4.72%     -    4s
     0     0  671.53290    0    9  704.79323  671.53290  4.72%     -   10s
     0     0  671.54405    0    8  704.79323  671.54405  4.72%     -   18s
     0     0  671.55332    0    8  704.79323  671.55332  4.72%     -   22s
     0     0  671.63674    0    8  704.79323  671.63674  4.70%     -   30s
     0     0  672.18173    0    8  704.79323  672.18173  4.63%     -   35s
     0     0  672.97917    0    8  704.79323  672.97917  4.51%     -   46s
     0     0  673.34216    0    8  704.79323  673.34216  4.46%     -   55s
     0     0  673.72708    0    8  704.79323  673.72708  4.41%     -   62s
     0     0  674.38883    0    8  704.79323  674.38883  4.31%     -   67s
     0     0  674.57897    0    8  704.79323  674.57897  4.29%     -   75s
     0     0  675.01203    0    8  704.79323  675.01203  4.23%     -   85s
     0     0  675.43613    0    8  704.79323  675.43613  4.17%     -   99s
     0     0  676.14099    0    8  704.79323  676.14099  4.07%     -  123s
     0     0  677.05760    0    8  704.79323  677.05760  3.94%     -  151s
     0     0  677.55814    0    8  704.79323  677.55814  3.86%     -  177s
     0     0  678.04220    0    8  704.79323  678.04220  3.80%     -  190s
     0     0  678.48110    0    8  704.79323  678.48110  3.73%     -  216s
     0     0  679.34064    0    8  704.79323  679.34064  3.61%     -  238s
     0     0  680.08873    0    8  704.79323  680.08873  3.51%     -  254s
     0     0  680.98529    0    8  704.79323  680.98529  3.38%     -  287s
     0     0  682.15222    0    8  704.79323  682.15222  3.21%     -  309s
     0     0  683.34339    0    8  704.79323  683.34339  3.04%     -  351s
     0     0  684.46868    0    8  704.79323  684.46868  2.88%     -  392s
     0     0  685.60501    0    8  704.79323  685.60501  2.72%     -  427s
     0     0  685.93338    0    8  704.79323  685.93338  2.68%     -  463s
     0     0  686.67016    0    8  704.79323  686.67016  2.57%     -  515s
     0     0  686.84405    0    8  704.79323  686.84405  2.55%     -  532s
     0     0  687.12063    0    8  704.79323  687.12063  2.51%     -  557s
     0     0  687.19574    0    8  704.79323  687.19574  2.50%     -  566s
     0     0  687.23357    0    9  704.79323  687.23357  2.49%     -  573s
     0     0  687.23401    0    9  704.79323  687.23401  2.49%     -  574s
     0     0  687.23420    0    9  704.79323  687.23420  2.49%     -  575s
     0     0  693.11496    0    6  704.79323  693.11496  1.66%     -  612s
H    0     0                     704.1177493  693.11496  1.56%     -  614s
     0     0  696.35927    0    6  704.11775  696.35927  1.10%     -  627s
     0     0  696.40757    0    6  704.11775  696.40757  1.10%     -  629s
     0     0  696.89360    0    6  704.11775  696.89360  1.03%     -  656s
H    0     0                     698.7661343  696.89360  0.27%     -  657s
     0     0  696.92610    0    6  698.76613  696.92610  0.26%     -  659s
     0     0  697.98022    0    3  698.76613  697.98022  0.11%     -  707s
     0     0  698.07439    0    3  698.76613  698.07439  0.10%     -  710s
     0     0  698.07439    0    3  698.76613  698.07439  0.10%     -  710s
     0     2  698.07439    0    3  698.76613  698.07439  0.10%     -  713s
     3     2  698.11320    2    3  698.76613  698.08040  0.10%  1229  715s
     5     2     cutoff    3       698.76613  698.11326  0.09%   740  724s
     7     2  698.33408    4    4  698.76613  698.31375  0.06%  2722  726s
    11     2  698.54647    6    3  698.76613  698.33659  0.06%  3539  742s
    17     2 infeasible    9       698.76613  698.55121  0.03%  2340  759s
    19     3  698.62163   10    4  698.76613  698.62150  0.02%  3091  760s
    36     2     cutoff   19       698.76613  698.62812  0.02%  1667  765s
Cutting planes:
  Implied bound: 61580
  MIR: 44
  Flow cover: 20
Explored 51 nodes (511178 simplex iterations) in 768.72 seconds
Thread count was 4 (of 4 available processors)

Solution count 4: 698.766 704.118 704.793 1144.7 

Optimal solution found (tolerance 1.00e-04)
Best objective 6.987661343131e+02, best bound 6.987661343131e+02, gap 0.0000%
Gurobi status= 2